K=5;
N=7;
P=[33 45 26 12 23];
R=[33 8 23 8 45];
A=[2 2 6 2 3];
C=[12 23 48 38 11];
M=[
	[0 30 31 5 6 28 36]
	[30 0 47 9 27 16 49]
	[31 47 0 26 11 26 29]
	[5 9 26 0 49 34 24]
	[6 27 11 49 0 14 39]
	[28 16 26 34 14 0 11]
	[36 49 29 24 39 11 0]
];